p tw 293 533
1 133
1 134
1 270
1 271
2 90
2 91
2 216
2 217
3 124
3 125
3 249
3 250
4 130
4 131
4 263
4 264
5 147
5 148
5 217
5 218
6 91
6 92
6 218
6 219
7 92
7 93
7 281
7 282
8 101
8 102
8 241
8 242
9 127
9 128
9 258
9 259
10 110
10 111
10 203
10 204
11 190
11 191
11 275
11 276
12 129
12 130
12 262
12 263
13 195
13 196
13 283
13 284
14 89
14 90
14 215
14 216
15 125
15 126
15 252
15 253
16 145
16 146
16 277
16 278
17 163
17 164
17 242
17 243
18 164
18 165
18 276
18 277
19 167
19 168
19 247
19 248
20 170
20 171
20 255
20 256
21 176
21 289
21 290
22 177
22 178
22 214
22 215
23 199
23 200
23 292
23 293
24 157
24 158
24 234
24 235
25 193
25 194
25 279
25 280
26 120
26 121
26 246
26 247
27 166
27 167
27 248
27 249
28 119
28 222
28 223
29 109
29 265
29 266
30 36
30 135
30 136
30 272
31 174
31 175
31 266
31 267
32 197
32 198
32 267
32 268
33 141
33 142
33 205
33 206
34 97
34 98
34 230
34 231
35 142
35 143
35 207
35 208
36 137
36 138
36 272
37 153
37 154
37 223
37 224
38 95
38 96
38 226
38 227
39 184
39 185
39 227
39 228
40 117
40 118
40 211
40 212
41 159
41 160
41 235
41 236
42 107
42 108
42 257
42 258
43 120
43 244
43 245
44 155
44 156
44 225
44 226
45 115
45 116
45 210
45 211
46 168
46 169
46 251
46 252
47 87
47 88
47 204
47 205
48 144
48 145
48 208
48 209
49 99
49 100
49 239
49 240
50 121
50 122
50 245
50 246
51 100
51 101
51 240
51 241
52 86
52 87
52 202
52 203
53 103
53 104
53 243
53 244
54 118
54 119
54 212
54 213
55 133
55 269
55 270
56 161
56 162
56 237
56 238
57 105
57 106
57 253
57 254
58 108
58 109
58 259
58 260
59 185
59 186
59 231
59 232
60 112
60 113
60 273
60 274
61 150
61 151
61 220
61 221
62 149
62 150
62 219
62 220
63 200
63 271
63 272
64 93
64 94
64 221
64 222
65 139
65 140
65 201
65 202
66 175
66 176
66 264
66 265
67 152
67 153
67 285
67 286
68 186
68 187
68 232
68 233
69 180
69 181
69 224
69 225
70 188
70 189
70 238
70 239
71 178
71 179
71 213
71 214
72 126
72 127
72 256
72 257
73 182
73 183
73 293
74 111
74 112
74 206
74 207
75 198
75 199
75 287
75 288
76 106
76 107
76 280
76 281
77 184
77 228
77 229
78 187
78 188
78 236
78 237
79 131
79 132
79 290
79 291
80 172
80 173
80 260
80 261
81 183
81 229
81 230
82 192
82 193
82 254
82 255
83 123
83 124
83 250
83 251
84 113
84 114
84 209
84 210
85 194
85 195
85 261
85 262
86 87
86 201
87 88
88 89
89 90
90 91
91 92
92 93
93 94
94 95
95 96
96 97
97 98
98 99
99 100
100 101
101 102
102 103
103 104
104 105
105 106
106 107
107 108
108 109
110 111
110 269
111 112
112 113
113 114
114 115
115 116
116 117
117 118
118 119
120 121
121 122
122 123
123 124
124 125
125 126
126 127
127 128
128 129
129 130
130 131
131 132
132 268
133 134
134 135
135 136
136 137
137 138
138 139
139 140
140 141
141 142
142 143
143 144
144 145
145 146
146 147
147 148
148 149
149 150
150 151
151 152
152 153
153 154
154 155
155 156
156 157
157 158
158 159
159 160
160 161
161 162
162 163
163 164
164 165
165 166
166 167
167 168
168 169
169 170
170 171
171 172
172 173
173 174
174 175
175 176
177 178
177 273
178 179
179 180
180 181
181 182
182 183
184 185
185 186
186 187
187 188
188 189
189 190
190 191
191 192
192 193
193 194
194 195
195 196
196 197
197 198
198 199
199 200
201 202
202 203
203 204
204 205
205 206
206 207
207 208
208 209
209 210
210 211
211 212
212 213
213 214
214 215
215 216
216 217
217 218
218 219
219 220
220 221
221 222
222 223
223 224
224 225
225 226
226 227
227 228
228 229
229 230
230 231
231 232
232 233
233 234
234 235
235 236
236 237
237 238
238 239
239 240
240 241
241 242
242 243
243 244
244 245
245 246
246 247
247 248
248 249
249 250
250 251
251 252
252 253
253 254
254 255
255 256
256 257
257 258
258 259
259 260
260 261
261 262
262 263
263 264
264 265
265 266
266 267
267 268
269 270
270 271
271 272
273 274
274 275
275 276
276 277
277 278
278 279
279 280
280 281
281 282
282 283
283 284
284 285
285 286
286 287
287 288
288 289
289 290
290 291
291 292
292 293
